<number of tasks>
20

<cycle time>
1000

<order strength>
0,8


<task times>
1 579
2 530
3 358
4 368
5 489
6 245
7 593
8 548
9 515
10 687
11 326
12 349
13 550
14 562
15 449
16 609
17 450
18 511
19 502
20 435

<precedence relations>
1,4
1,5
2,4
2,5
3,4
3,5
4,6
4,7
5,6
5,7
6,8
6,9
7,8
7,9
8,10
8,11
8,12
9,11
10,17
11,13
11,14
12,15
12,17
13,16
14,16
14,17
15,18
17,19
18,19
19,20

<end>
